Version identifier: 20.1.0.0 | 2020-11-10 | 9bedb6d68
Tried aggregator 2 times.
MIP Presolve eliminated 911 rows and 467 columns.
MIP Presolve modified 2336 coefficients.
Aggregator did 117 substitutions.
Reduced MIP has 1381 rows, 1081 columns, and 4536 nonzeros.
Reduced MIP has 214 binaries, 867 generals, 0 SOSs, and 0 indicators.
Presolve time = 0.02 sec. (5.48 ticks)
Probing fixed 30 vars, tightened 310 bounds.
Probing time = 0.00 sec. (0.89 ticks)
Tried aggregator 2 times.
Detecting symmetries...
MIP Presolve eliminated 586 rows and 36 columns.
MIP Presolve modified 111 coefficients.
Aggregator did 6 substitutions.
Reduced MIP has 789 rows, 1039 columns, and 2580 nonzeros.
Reduced MIP has 268 binaries, 771 generals, 0 SOSs, and 0 indicators.
Presolve time = 0.01 sec. (3.57 ticks)
Probing time = 0.00 sec. (0.19 ticks)
Clique table members: 5.
MIP emphasis: balance optimality and feasibility.
MIP search method: dynamic search.
Parallel mode: deterministic, using up to 24 threads.
Root relaxation solution time = 0.01 sec. (2.30 ticks)

        Nodes                                         Cuts/
   Node  Left     Objective  IInf  Best Integer    Best Bound    ItCnt     Gap

      0     0        0.0000    30                      0.0000      273         
      0     0        0.0000    54                    Cuts: 59      331         
*     0+    0                           23.0000        0.0000           100.00%
      0     0        0.3333   138       23.0000      Cuts: 73      480   98.55%
      0     0        0.8739   185       23.0000      Cuts: 54      561   96.20%
      0     0        1.3333   135       23.0000      Cuts: 73      613   94.20%
      0     0        1.3333   119       23.0000      Cuts: 28      634   94.20%
      0     0        1.3333   132       23.0000  ZeroHalf: 29      645   94.20%
*     0+    0                           16.0000        1.3333            91.67%
*     0+    0                           13.0000        1.3333            89.74%
      0     0        cutoff             13.0000       13.0000      645    0.00%
Elapsed time = 0.51 sec. (94.18 ticks, tree = 0.01 MB, solutions = 3)

Implied bound cuts applied:  21
Flow cuts applied:  3
Mixed integer rounding cuts applied:  8
Zero-half cuts applied:  86
Lift and project cuts applied:  5
Gomory fractional cuts applied:  15

Root node processing (before b&c):
  Real time             =    0.51 sec. (94.27 ticks)
Parallel b&c, 24 threads:
  Real time             =    0.00 sec. (0.00 ticks)
  Sync time (average)   =    0.00 sec.
  Wait time (average)   =    0.00 sec.
                          ------------
Total (root+branch&cut) =    0.51 sec. (94.27 ticks)

Solution status = Optimal
Solution LB = 13
Solution UB = 13
Runtime = 0.516279 seconds
	Command being timed: "/home/min/git_repos/CS598MEBProject/CNT-ILP/build/cnt -s 2 ./output/k8_n15/simC_c1_k8_n15_u3_s1_del04.input-left.cnp"
	User time (seconds): 6.72
	System time (seconds): 0.05
	Percent of CPU this job got: 1217%
	Elapsed (wall clock) time (h:mm:ss or m:ss): 0:00.55
	Average shared text size (kbytes): 0
	Average unshared data size (kbytes): 0
	Average stack size (kbytes): 0
	Average total size (kbytes): 0
	Maximum resident set size (kbytes): 90820
	Average resident set size (kbytes): 0
	Major (requiring I/O) page faults: 0
	Minor (reclaiming a frame) page faults: 20258
	Voluntary context switches: 4657
	Involuntary context switches: 860
	Swaps: 0
	File system inputs: 0
	File system outputs: 16
	Socket messages sent: 0
	Socket messages received: 0
	Signals delivered: 0
	Page size (bytes): 4096
	Exit status: 0
